swarm_exploration/utils/lkh_mtsp_solver/resource/amtsp_1.tour
NAME : amtsp.-99744.tour
COMMENT : Length = -99744
COMMENT : Found by LKH [Keld Helsgaun] Wed Oct 23 18:57:45 2024
TYPE : TOUR
DIMENSION : 3
TOUR_SECTION
1
2
3
-1
EOF
